p cnf 7230 16
395 1846 2192 -2894 0
-395 -2895 0
-1846 -2895 0
2898 2899 0
2184 -2899 0
-2184 -2898 0
2896 2897 0
2178 -2897 0
-2178 -2896 0
2894 2895 0
2892 2893 0
2176 -2893 0
-2176 -2892 0
-2192 -2895 0
2890 2891 0
-2890 -2891 0
